c nombre: 14
c densidad: 0.1
p edges 50 134
e 1 3
e 1 11
e 1 15
e 1 22
e 1 26
e 1 40
e 2 6
e 2 9
e 2 15
e 2 16
e 2 20
e 2 21
e 3 9
e 3 21
e 3 23
e 3 25
e 3 27
e 3 42
e 3 47
e 4 19
e 4 24
e 4 27
e 4 31
e 4 33
e 4 38
e 5 8
e 5 18
e 5 35
e 5 42
e 6 11
e 6 20
e 6 21
e 6 25
e 6 32
e 6 36
e 7 14
e 7 34
e 7 45
e 9 34
e 9 36
e 10 14
e 10 18
e 10 19
e 10 41
e 11 19
e 11 22
e 11 23
e 11 38
e 11 48
e 11 49
e 12 15
e 12 23
e 12 25
e 12 32
e 12 38
e 12 41
e 13 27
e 13 36
e 13 41
e 14 16
e 14 25
e 14 36
e 14 40
e 15 19
e 15 20
e 16 26
e 16 28
e 16 50
e 17 27
e 17 30
e 17 31
e 17 34
e 17 35
e 18 26
e 18 29
e 18 45
e 19 29
e 19 43
e 20 23
e 20 36
e 20 43
e 20 47
e 21 28
e 21 43
e 21 44
e 21 45
e 22 26
e 22 42
e 22 46
e 22 48
e 23 36
e 23 37
e 23 45
e 23 48
e 24 35
e 24 46
e 24 49
e 25 42
e 27 28
e 27 37
e 27 39
e 27 43
e 28 35
e 28 40
e 28 41
e 28 50
e 29 41
e 30 37
e 30 40
e 31 35
e 31 36
e 31 37
e 31 42
e 32 34
e 32 35
e 32 39
e 33 39
e 34 45
e 35 36
e 35 42
e 35 46
e 36 38
e 36 50
e 37 44
e 37 48
e 38 40
e 39 43
e 39 50
e 41 42
e 41 50
e 44 47
e 46 47
e 48 49
e 49 50
